W=4;
H=3;

MAX_TIME=5;
MAX_TRACKS=3;

TARGET=(1,4);

TRAINS=[(1,1,RIGHT),(3,1,RIGHT)];

INIT_POS=[
(1,1,STRAIGHT_RL),
(1,2,STRAIGHT_RL),
(1,3,SWITCH_L_R_D),
(1,4,STRAIGHT_RL),
(3,1,STRAIGHT_RL),
];
TUNNEL_PAIRS=[];

GATES=[];
ACTIVATIONS=[];

DSWITCHES=[];

STATIONS=[];
